data/medium_6.dzn
num_nodi = 7;
ufficio_postale = 5;
dim_borsa = 30;
max_step = 17;
elenco_lettere = [14, 5, 14, 15, 0, 0, 0];
distanze = [|0, 19, 5, 21, 1, 10, 23
|25, 0, 22, 5, 14, 18, 4
|4, 5, 0, 17, 9, 7, 16
|7, 19, 2, 0, 6, 21, 6
|3, 21, 18, 23, 0, 22, 8
|2, 12, 20, 1, 17, 0, 1
|20, 18, 12, 14, 2, 6, 0
|];
