data/medium_6.lp
node(1..7).

ufficio_postale(5).

dim_borsa(30).

time(1..17).

lettere(1,14).
lettere(2,5).
lettere(3,14).
lettere(4,15).
lettere(5,0).
lettere(6,0).
lettere(7,0).

costo_arco(1, 1, 0).
costo_arco(1, 2, 19).
costo_arco(1, 3, 5).
costo_arco(1, 4, 21).
costo_arco(1, 5, 1).
costo_arco(1, 6, 10).
costo_arco(1, 7, 23).

costo_arco(2, 1, 25).
costo_arco(2, 2, 0).
costo_arco(2, 3, 22).
costo_arco(2, 4, 5).
costo_arco(2, 5, 14).
costo_arco(2, 6, 18).
costo_arco(2, 7, 4).

costo_arco(3, 1, 4).
costo_arco(3, 2, 5).
costo_arco(3, 3, 0).
costo_arco(3, 4, 17).
costo_arco(3, 5, 9).
costo_arco(3, 6, 7).
costo_arco(3, 7, 16).

costo_arco(4, 1, 7).
costo_arco(4, 2, 19).
costo_arco(4, 3, 2).
costo_arco(4, 4, 0).
costo_arco(4, 5, 6).
costo_arco(4, 6, 21).
costo_arco(4, 7, 6).

costo_arco(5, 1, 3).
costo_arco(5, 2, 21).
costo_arco(5, 3, 18).
costo_arco(5, 4, 23).
costo_arco(5, 5, 0).
costo_arco(5, 6, 22).
costo_arco(5, 7, 8).

costo_arco(6, 1, 2).
costo_arco(6, 2, 12).
costo_arco(6, 3, 20).
costo_arco(6, 4, 1).
costo_arco(6, 5, 17).
costo_arco(6, 6, 0).
costo_arco(6, 7, 1).

costo_arco(7, 1, 20).
costo_arco(7, 2, 18).
costo_arco(7, 3, 12).
costo_arco(7, 4, 14).
costo_arco(7, 5, 2).
costo_arco(7, 6, 6).
costo_arco(7, 7, 0).

